c peterson.cnf
c
p cnf 30 87
-14 -11 0
-25 -13 0
-11 -26 0
-1 -3 0
-25 -27 0
-28 -7 0
-18 -21 0
-28 -30 0
-2 -14 0
-16 -25 0
-24 -21 0
-12 -9 0
-16 -19 0
-25 -28 0
-17 -18 0
-29 -30 0
-5 -17 0
-1 -22 0
1 2 3 0
-10 -11 0
-13 -10 0
-27 -30 0
-30 -9 0
-27 -15 0
13 14 15 0
-22 -23 0
-2 -23 0
-10 -7 0
-13 -14 0
-26 -14 0
16 17 18 0
28 29 30 0
-20 -21 0
-5 -6 0
-11 -8 0
22 23 24 0
-14 -20 0
-16 -17 0
-29 -8 0
-25 -26 0
-12 -27 0
-19 -20 0
-16 -18 0
-22 -24 0
-19 -21 0
-6 -3 0
-1 -13 0
-26 -29 0
19 20 21 0
-5 -8 0
-1 -2 0
-17 -20 0
-4 -5 0
-2 -3 0
-4 -7 0
-4 -1 0
-26 -27 0
-22 -28 0
-23 -20 0
-28 -29 0
-15 -12 0
-10 -12 0
-11 -12 0
-6 -18 0
-3 -24 0
-15 -21 0
-23 -29 0
-4 -16 0
-13 -15 0
-4 -6 0
10 11 12 0
-21 -12 0
-14 -15 0
4 5 6 0
-18 -27 0
-5 -2 0
-3 -15 0
-10 -25 0
-22 -19 0
-23 -24 0
-17 -26 0
-19 -10 0
-24 -30 0
-20 -11 0
25 26 27 0
-6 -9 0
-13 -19 0
